10 6 3.5
6 6 3 3 4 5 1 3 6 6 2 2 5 3 2 6 5 3 4 6 1 1 5 6 3 3 4 3 2 6 6 5 1 2 6 2 6 3 5 6 3 3 2 2 1 5 4 
6 5 6 1 5 6 1 3 2 4 4 2 2 6 3 5 6 1 5 2 2 2 4 3 3 3 3 2 2 1 5 4 6 3 3 4 5 1 3 6 6 2 2 5 3 
6 6 1 1 5 6 3 3 4 3 2 6 6 5 6 5 3 4 6 2 4 6 6 3 6 1 2 3 3 2 2 1 5 4 5 3 5 1 4 2 3 6 3 5 2 6 4 1 1 5 2 4 5 5 3 3 6 3 5 6 3 1 4 4 6 3 6 5 3 
6 5 3 5 1 4 2 3 6 3 5 2 5 6 1 5 6 1 3 2 4 4 2 1 2 6 6 1 1 5 6 3 3 4 3 2 6 6 5 5 1 4 4 5 2 3 6 3 5 4 6 4 1 1 5 2 4 5 5 3 3 6 3 
6 6 5 3 4 6 2 4 6 6 3 6 1 2 5 1 4 4 5 2 3 6 3 5 4 1 4 3 5 6 3 1 4 4 6 3 6 5 3 5 6 1 5 6 1 3 2 4 4 2 2 2 4 3 3 
6 5 6 3 1 4 4 6 3 6 5 3 2 6 5 3 4 5 3 5 1 4 2 3 6 3 5 2 6 5 3 4 6 2 4 6 6 3 6 1 2 1 2 6 5 6 1 5 6 1 3 2 4 4 2 
5 6 4 1 1 5 2 4 5 5 3 3 6 3 1 5 2 6 5 3 4 6 2 4 6 6 3 6 1 2 6 3 3 4 5 1 3 6 6 2 2 5 3 5 6 3 1 4 4 6 3 6 5 3 
6 2 2 4 3 3 5 3 5 1 4 2 3 6 3 5 2 6 5 3 4 6 2 4 6 6 3 6 1 2 5 6 3 1 4 4 6 3 6 5 3 5 1 4 4 5 2 3 6 3 5 4 5 6 1 5 6 1 3 2 4 4 2 
5 1 2 6 2 6 5 3 4 5 6 1 5 6 1 3 2 4 4 2 5 1 4 4 5 2 3 6 3 5 4 2 2 4 3 3 
6 1 4 3 6 5 3 4 6 2 4 6 6 3 6 1 2 5 6 3 1 4 4 6 3 6 5 3 6 4 1 1 5 2 4 5 5 3 3 6 3 2 6 3 5 6 5 6 1 5 6 1 3 2 4 4 2 
10 1 0 3 1 3 6 1 6 9 2 9 12 2 12 15 1 15 18 1 18 21 1 21 24 1 24 27 1 28 29 
2 3 7 21 1 36 48 
8 1 1 4 1 6 9 2 11 14 2 15 20 1 21 24 2 25 30 1 31 34 3 35 40 
3 4 2 9 4 13 20 5 24 31 
12 1 0 4 1 5 7 1 9 11 1 12 16 1 16 20 1 21 23 2 24 28 1 29 31 2 32 36 2 36 40 2 40 44 1 45 47 
5 3 1 7 4 9 15 1 18 22 4 25 31 1 34 38 
